p tw 225 47251 2 
1 3 
1 4 
1 5 
1 6 
1 7 
1 8 
1 9 
1 10 
1 11 
1 12 
1 13 
1 14 
1 15 
1 16 
1 28 
1 31 
1 41 
1 46 
1 57 
1 61 
1 75 
1 76 
1 77 
1 91 
1 98 
1 106 
1 119 
1 121 
1 129 
1 136 
1 145 
1 151 
1 157 
1 166 
1 168 
1 181 
1 185 
1 196 
1 199 
1 211 
1 216 
2 3 
2 4 
2 5 
2 6 
2 7 
2 8 
2 9 
2 10 
2 11 
2 12 
2 13 
2 14 
2 15 
2 17 
2 25 
2 32 
2 43 
2 47 
2 49 
2 62 
2 65 
2 77 
2 82 
2 92 
2 99 
2 107 
2 120 
2 122 
2 132 
2 137 
2 141 
2 152 
2 164 
2 167 
2 176 
2 182 
2 183 
2 196 
2 197 
2 212 
2 218 
3 4 
3 5 
3 6 
3 7 
3 8 
3 9 
3 10 
3 11 
3 12 
3 13 
3 14 
3 15 
3 17 
3 18 
3 33 
3 42 
3 48 
3 60 
3 63 
3 74 
3 78 
3 88 
3 93 
3 94 
3 108 
3 116 
3 121 
3 123 
3 138 
3 143 
3 153 
3 159 
3 168 
3 172 
3 183 
3 186 
3 198 
3 200 
3 213 
3 220 
4 5 
4 6 
4 7 
4 8 
4 9 
4 10 
4 11 
4 12 
4 13 
4 14 
4 15 
4 19 
4 30 
4 32 
4 34 
4 46 
4 49 
4 64 
4 73 
4 79 
4 89 
4 94 
4 95 
4 109 
4 117 
4 124 
4 127 
4 139 
4 144 
4 154 
4 158 
4 169 
4 171 
4 184 
4 190 
4 199 
4 206 
4 213 
4 214 
5 6 
5 7 
5 8 
5 9 
5 10 
5 11 
5 12 
5 13 
5 14 
5 15 
5 20 
5 23 
5 35 
5 45 
5 50 
5 55 
5 65 
5 67 
5 76 
5 80 
5 95 
5 103 
5 109 
5 110 
5 123 
5 125 
5 140 
5 146 
5 155 
5 156 
5 167 
5 170 
5 185 
5 194 
5 200 
5 204 
5 215 
5 222 
6 7 
6 8 
6 9 
6 10 
6 11 
6 12 
6 13 
6 14 
6 15 
6 21 
6 26 
6 33 
6 36 
6 51 
6 58 
6 66 
6 72 
6 80 
6 81 
6 91 
6 96 
6 111 
6 114 
6 126 
6 128 
6 137 
6 141 
6 156 
6 160 
6 171 
6 180 
6 184 
6 186 
6 201 
6 202 
6 216 
6 224 
7 8 
7 9 
7 10 
7 11 
7 12 
7 13 
7 14 
7 15 
7 21 
7 22 
7 37 
7 40 
7 52 
7 54 
7 61 
7 67 
7 82 
7 87 
7 97 
7 101 
7 110 
7 112 
7 124 
7 127 
7 138 
7 142 
7 152 
7 157 
7 172 
7 173 
7 187 
7 195 
7 202 
7 209 
7 217 
7 223 
8 9 
8 10 
8 11 
8 12 
8 13 
8 14 
8 15 
8 22 
8 23 
8 36 
8 38 
8 50 
8 53 
8 64 
8 68 
8 78 
8 83 
8 92 
8 98 
8 106 
8 113 
8 128 
8 135 
8 143 
8 149 
8 158 
8 163 
8 173 
8 177 
8 188 
8 191 
8 203 
8 205 
8 218 
8 219 
9 10 
9 11 
9 12 
9 13 
9 14 
9 15 
9 20 
9 24 
9 37 
9 39 
9 54 
9 59 
9 68 
9 69 
9 79 
9 84 
9 93 
9 99 
9 107 
9 114 
9 129 
9 130 
9 144 
9 150 
9 151 
9 159 
9 174 
9 178 
9 189 
9 192 
9 201 
9 204 
9 219 
9 221 
10 11 
10 12 
10 13 
10 14 
10 15 
10 24 
10 25 
10 38 
10 40 
10 52 
10 55 
10 66 
10 70 
10 85 
10 86 
10 100 
10 104 
10 108 
10 115 
10 122 
10 130 
10 136 
10 145 
10 160 
10 165 
10 169 
10 175 
10 190 
10 193 
10 205 
10 207 
10 215 
10 220 
11 12 
11 13 
11 14 
11 15 
11 26 
11 29 
11 35 
11 41 
11 47 
11 56 
11 69 
11 71 
11 86 
11 90 
11 100 
11 101 
11 111 
11 116 
11 131 
11 133 
11 142 
11 146 
11 161 
11 162 
11 166 
11 176 
11 188 
11 191 
11 198 
11 206 
11 214 
11 221 
12 13 
12 14 
12 15 
12 16 
12 27 
12 34 
12 42 
12 48 
12 57 
12 62 
12 72 
12 81 
12 87 
12 102 
12 105 
12 117 
12 118 
12 132 
12 134 
12 140 
12 147 
12 161 
12 162 
12 175 
12 177 
12 189 
12 192 
12 203 
12 207 
12 217 
12 222 
13 14 
13 15 
13 27 
13 28 
13 43 
13 44 
13 51 
13 58 
13 71 
13 73 
13 83 
13 88 
13 97 
13 103 
13 115 
13 118 
13 125 
13 133 
13 139 
13 148 
13 153 
13 163 
13 174 
13 178 
13 181 
13 193 
13 208 
13 210 
13 212 
13 223 
14 15 
14 18 
14 29 
14 31 
14 44 
14 53 
14 59 
14 70 
14 74 
14 84 
14 89 
14 96 
14 104 
14 112 
14 119 
14 131 
14 134 
14 147 
14 149 
14 154 
14 164 
14 170 
14 179 
14 182 
14 194 
14 208 
14 209 
14 224 
14 225 
15 19 
15 30 
15 39 
15 45 
15 56 
15 60 
15 63 
15 75 
15 85 
15 90 
15 102 
15 105 
15 113 
15 120 
15 126 
15 135 
15 148 
15 150 
15 155 
15 165 
15 179 
15 180 
15 187 
15 195 
15 197 
15 210 
15 211 
15 225 
16 17 
16 18 
16 19 
16 20 
16 21 
16 22 
16 23 
16 24 
16 25 
16 26 
16 27 
16 28 
16 29 
16 30 
16 31 
16 34 
16 46 
16 48 
16 61 
16 62 
16 76 
16 81 
16 91 
16 105 
16 106 
16 118 
16 121 
16 134 
16 136 
16 140 
16 151 
16 161 
16 166 
16 175 
16 181 
16 189 
16 196 
16 203 
16 211 
16 217 
17 18 
17 19 
17 20 
17 21 
17 22 
17 23 
17 24 
17 25 
17 26 
17 27 
17 28 
17 29 
17 30 
17 32 
17 42 
17 47 
17 60 
17 62 
17 74 
17 77 
17 88 
17 92 
17 94 
17 107 
17 116 
17 121 
17 122 
17 137 
17 143 
17 152 
17 159 
17 167 
17 172 
17 182 
17 186 
17 197 
17 200 
17 212 
17 220 
18 19 
18 20 
18 21 
18 22 
18 23 
18 24 
18 25 
18 26 
18 27 
18 28 
18 29 
18 30 
18 31 
18 33 
18 48 
18 53 
18 63 
18 70 
18 78 
18 84 
18 93 
18 96 
18 108 
18 112 
18 123 
18 131 
18 138 
18 147 
18 153 
18 154 
18 168 
18 170 
18 182 
18 183 
18 198 
18 208 
18 213 
18 225 
19 20 
19 21 
19 22 
19 23 
19 24 
19 25 
19 26 
19 27 
19 28 
19 29 
19 30 
19 34 
19 39 
19 49 
19 56 
19 63 
19 64 
19 79 
19 85 
19 94 
19 102 
19 109 
19 113 
19 124 
19 126 
19 139 
19 148 
19 154 
19 155 
19 169 
19 179 
19 184 
19 187 
19 197 
19 199 
19 211 
19 214 
20 21 
20 22 
20 23 
20 24 
20 25 
20 26 
20 27 
20 28 
20 29 
20 30 
20 35 
20 37 
20 50 
20 59 
20 65 
20 68 
20 79 
20 80 
20 93 
20 95 
20 107 
20 110 
20 125 
20 130 
20 140 
20 150 
20 151 
20 155 
20 170 
20 178 
20 185 
20 192 
20 200 
20 201 
20 215 
20 221 
21 22 
21 23 
21 24 
21 25 
21 26 
21 27 
21 28 
21 29 
21 30 
21 36 
21 40 
21 51 
21 54 
21 61 
21 66 
21 81 
21 87 
21 96 
21 101 
21 110 
21 111 
21 124 
21 126 
21 138 
21 141 
21 152 
21 156 
21 171 
21 173 
21 186 
21 195 
21 201 
21 209 
21 216 
21 223 
22 23 
22 24 
22 25 
22 26 
22 27 
22 28 
22 29 
22 30 
22 36 
22 37 
22 50 
22 52 
22 64 
22 67 
22 78 
22 82 
22 92 
22 97 
22 106 
22 112 
22 127 
22 135 
22 142 
22 149 
22 157 
22 163 
22 172 
22 177 
22 187 
22 191 
22 202 
22 205 
22 217 
22 219 
23 24 
23 25 
23 26 
23 27 
23 28 
23 29 
23 30 
23 38 
23 45 
23 53 
23 55 
23 67 
23 68 
23 76 
23 83 
23 98 
23 103 
23 109 
23 113 
23 123 
23 128 
23 143 
23 146 
23 156 
23 158 
23 167 
23 173 
23 188 
23 194 
23 203 
23 204 
23 218 
23 222 
24 25 
24 26 
24 27 
24 28 
24 29 
24 30 
24 38 
24 39 
24 52 
24 54 
24 66 
24 69 
24 84 
24 86 
24 99 
24 104 
24 108 
24 114 
24 122 
24 129 
24 136 
24 144 
24 159 
24 165 
24 169 
24 174 
24 189 
24 193 
24 204 
24 207 
24 215 
24 219 
25 26 
25 27 
25 28 
25 29 
25 30 
25 40 
25 43 
25 49 
25 55 
25 65 
25 70 
25 82 
25 85 
25 99 
25 100 
25 115 
25 120 
25 130 
25 132 
25 141 
25 145 
25 160 
25 164 
25 175 
25 176 
25 183 
25 190 
25 196 
25 205 
25 218 
25 220 
26 27 
26 28 
26 29 
26 30 
26 33 
26 41 
26 56 
26 58 
26 71 
26 72 
26 80 
26 86 
26 91 
26 101 
26 114 
26 116 
26 128 
26 131 
26 137 
26 146 
26 160 
26 161 
26 176 
26 180 
26 184 
26 191 
26 202 
26 206 
26 221 
26 224 
27 28 
27 29 
27 30 
27 42 
27 44 
27 51 
27 57 
27 71 
27 72 
27 83 
27 87 
27 97 
27 102 
27 115 
27 117 
27 125 
27 132 
27 139 
27 147 
27 153 
27 162 
27 174 
27 177 
27 181 
27 192 
27 207 
27 210 
27 212 
27 222 
28 29 
28 30 
28 41 
28 43 
28 57 
28 58 
28 73 
28 75 
28 77 
28 88 
28 98 
28 103 
28 118 
28 119 
28 129 
28 133 
28 145 
28 148 
28 157 
28 163 
28 168 
28 178 
28 185 
28 193 
28 199 
28 208 
28 216 
28 223 
29 30 
29 35 
29 44 
29 47 
29 59 
29 69 
29 74 
29 89 
29 90 
29 100 
29 104 
29 111 
29 119 
29 133 
29 134 
29 142 
29 149 
29 162 
29 164 
29 166 
29 179 
29 188 
29 194 
29 198 
29 209 
29 214 
29 224 
30 32 
30 45 
30 46 
30 60 
30 73 
30 75 
30 89 
30 90 
30 95 
30 105 
30 117 
30 120 
30 127 
30 135 
30 144 
30 150 
30 158 
30 165 
30 171 
30 180 
30 190 
30 195 
30 206 
30 210 
30 213 
30 225 
31 32 
31 33 
31 34 
31 35 
31 36 
31 37 
31 38 
31 39 
31 40 
31 41 
31 42 
31 43 
31 44 
31 45 
31 46 
31 53 
31 61 
31 70 
31 76 
31 84 
31 91 
31 96 
31 106 
31 112 
31 121 
31 131 
31 136 
31 147 
31 151 
31 154 
31 166 
31 170 
31 181 
31 182 
31 196 
31 208 
31 211 
31 225 
32 33 
32 34 
32 35 
32 36 
32 37 
32 38 
32 39 
32 40 
32 41 
32 42 
32 43 
32 44 
32 45 
32 46 
32 47 
32 62 
32 73 
32 77 
32 89 
32 92 
32 95 
32 107 
32 117 
32 122 
32 127 
32 137 
32 144 
32 152 
32 158 
32 167 
32 171 
32 182 
32 190 
32 197 
32 206 
32 212 
32 213 
33 34 
33 35 
33 36 
33 37 
33 38 
33 39 
33 40 
33 41 
33 42 
33 43 
33 44 
33 45 
33 48 
33 58 
33 63 
33 72 
33 78 
33 80 
33 91 
33 93 
33 108 
33 114 
33 123 
33 128 
33 137 
33 138 
33 153 
33 160 
33 168 
33 180 
33 183 
33 184 
33 198 
33 202 
33 213 
33 224 
34 35 
34 36 
34 37 
34 38 
34 39 
34 40 
34 41 
34 42 
34 43 
34 44 
34 45 
34 48 
34 49 
34 62 
34 64 
34 79 
34 81 
34 94 
34 105 
34 109 
34 118 
34 124 
34 134 
34 139 
34 140 
34 154 
34 161 
34 169 
34 175 
34 184 
34 189 
34 199 
34 203 
34 214 
34 217 
35 36 
35 37 
35 38 
35 39 
35 40 
35 41 
35 42 
35 43 
35 44 
35 45 
35 47 
35 50 
35 65 
35 69 
35 80 
35 90 
35 95 
35 100 
35 110 
35 111 
35 125 
35 133 
35 140 
35 142 
35 155 
35 162 
35 166 
35 170 
35 185 
35 188 
35 198 
35 200 
35 214 
35 215 
36 37 
36 38 
36 39 
36 40 
36 41 
36 42 
36 43 
36 44 
36 45 
36 50 
36 51 
36 64 
36 66 
36 78 
36 81 
36 92 
36 96 
36 106 
36 111 
36 126 
36 135 
36 141 
36 149 
36 156 
36 163 
36 171 
36 177 
36 186 
36 191 
36 201 
36 205 
36 216 
36 219 
37 38 
37 39 
37 40 
37 41 
37 42 
37 43 
37 44 
37 45 
37 52 
37 59 
37 67 
37 68 
37 79 
37 82 
37 93 
37 97 
37 107 
37 112 
37 127 
37 130 
37 142 
37 150 
37 151 
37 157 
37 172 
37 178 
37 187 
37 192 
37 201 
37 202 
37 217 
37 221 
38 39 
38 40 
38 41 
38 42 
38 43 
38 44 
38 45 
38 52 
38 53 
38 66 
38 68 
38 83 
38 86 
38 98 
38 104 
38 108 
38 113 
38 122 
38 128 
38 136 
38 143 
38 158 
38 165 
38 169 
38 173 
38 188 
38 193 
38 203 
38 207 
38 215 
38 218 
39 40 
39 41 
39 42 
39 43 
39 44 
39 45 
39 54 
39 56 
39 63 
39 69 
39 84 
39 85 
39 99 
39 102 
39 113 
39 114 
39 126 
39 129 
39 144 
39 148 
39 155 
39 159 
39 174 
39 179 
39 187 
39 189 
39 197 
39 204 
39 211 
39 219 
40 41 
40 42 
40 43 
40 44 
40 45 
40 54 
40 55 
40 61 
40 70 
40 85 
40 87 
40 100 
40 101 
40 110 
40 115 
40 124 
40 130 
40 138 
40 145 
40 152 
40 160 
40 173 
40 175 
40 190 
40 195 
40 205 
40 209 
40 220 
40 223 
41 42 
41 43 
41 44 
41 45 
41 56 
41 57 
41 71 
41 75 
41 77 
41 86 
41 98 
41 101 
41 116 
41 119 
41 129 
41 131 
41 145 
41 146 
41 157 
41 161 
41 168 
41 176 
41 185 
41 191 
41 199 
41 206 
41 216 
41 221 
42 43 
42 44 
42 45 
42 57 
42 60 
42 72 
42 74 
42 87 
42 88 
42 94 
42 102 
42 116 
42 117 
42 121 
42 132 
42 143 
42 147 
42 159 
42 162 
42 172 
42 177 
42 186 
42 192 
42 200 
42 207 
42 220 
42 222 
43 44 
43 45 
43 49 
43 58 
43 65 
43 73 
43 82 
43 88 
43 99 
43 103 
43 118 
43 120 
43 132 
43 133 
43 141 
43 148 
43 163 
43 164 
43 176 
43 178 
43 183 
43 193 
43 196 
43 208 
43 218 
43 223 
44 45 
44 51 
44 59 
44 71 
44 74 
44 83 
44 89 
44 97 
44 104 
44 115 
44 119 
44 125 
44 134 
44 139 
44 149 
44 153 
44 164 
44 174 
44 179 
44 181 
44 194 
44 209 
44 210 
44 212 
44 224 
45 55 
45 60 
45 67 
45 75 
45 76 
45 90 
45 103 
45 105 
45 109 
45 120 
45 123 
45 135 
45 146 
45 150 
45 156 
45 165 
45 167 
45 180 
45 194 
45 195 
45 204 
45 210 
45 222 
45 225 
46 47 
46 48 
46 49 
46 50 
46 51 
46 52 
46 53 
46 54 
46 55 
46 56 
46 57 
46 58 
46 59 
46 60 
46 61 
46 73 
46 76 
46 89 
46 91 
46 95 
46 106 
46 117 
46 121 
46 127 
46 136 
46 144 
46 151 
46 158 
46 166 
46 171 
46 181 
46 190 
46 196 
46 206 
46 211 
46 213 
47 48 
47 49 
47 50 
47 51 
47 52 
47 53 
47 54 
47 55 
47 56 
47 57 
47 58 
47 59 
47 60 
47 62 
47 69 
47 77 
47 90 
47 92 
47 100 
47 107 
47 111 
47 122 
47 133 
47 137 
47 142 
47 152 
47 162 
47 166 
47 167 
47 182 
47 188 
47 197 
47 198 
47 212 
47 214 
48 49 
48 50 
48 51 
48 52 
48 53 
48 54 
48 55 
48 56 
48 57 
48 58 
48 59 
48 60 
48 62 
48 63 
48 78 
48 81 
48 93 
48 105 
48 108 
48 118 
48 123 
48 134 
48 138 
48 140 
48 153 
48 161 
48 168 
48 175 
48 183 
48 189 
48 198 
48 203 
48 213 
48 217 
49 50 
49 51 
49 52 
49 53 
49 54 
49 55 
49 56 
49 57 
49 58 
49 59 
49 60 
49 64 
49 65 
49 79 
49 82 
49 94 
49 99 
49 109 
49 120 
49 124 
49 132 
49 139 
49 141 
49 154 
49 164 
49 169 
49 176 
49 183 
49 184 
49 196 
49 199 
49 214 
49 218 
50 51 
50 52 
50 53 
50 54 
50 55 
50 56 
50 57 
50 58 
50 59 
50 60 
50 64 
50 65 
50 78 
50 80 
50 92 
50 95 
50 106 
50 110 
50 125 
50 135 
50 140 
50 149 
50 155 
50 163 
50 170 
50 177 
50 185 
50 191 
50 200 
50 205 
50 215 
50 219 
51 52 
51 53 
51 54 
51 55 
51 56 
51 57 
51 58 
51 59 
51 60 
51 66 
51 71 
51 81 
51 83 
51 96 
51 97 
51 111 
51 115 
51 125 
51 126 
51 139 
51 141 
51 153 
51 156 
51 171 
51 174 
51 181 
51 186 
51 201 
51 210 
51 212 
51 216 
52 53 
52 54 
52 55 
52 56 
52 57 
52 58 
52 59 
52 60 
52 66 
52 67 
52 82 
52 86 
52 97 
52 104 
52 108 
52 112 
52 122 
52 127 
52 136 
52 142 
52 157 
52 165 
52 169 
52 172 
52 187 
52 193 
52 202 
52 207 
52 215 
52 217 
53 54 
53 55 
53 56 
53 57 
53 58 
53 59 
53 60 
53 68 
53 70 
53 83 
53 84 
53 96 
53 98 
53 112 
53 113 
53 128 
53 131 
53 143 
53 147 
53 154 
53 158 
53 170 
53 173 
53 182 
53 188 
53 203 
53 208 
53 218 
53 225 
54 55 
54 56 
54 57 
54 58 
54 59 
54 60 
54 61 
54 69 
54 84 
54 87 
54 99 
54 101 
54 110 
54 114 
54 124 
54 129 
54 138 
54 144 
54 152 
54 159 
54 173 
54 174 
54 189 
54 195 
54 204 
54 209 
54 219 
54 223 
55 56 
55 57 
55 58 
55 59 
55 60 
55 67 
55 70 
55 76 
55 85 
55 100 
55 103 
55 109 
55 115 
55 123 
55 130 
55 145 
55 146 
55 156 
55 160 
55 167 
55 175 
55 190 
55 194 
55 204 
55 205 
55 220 
55 222 
56 57 
56 58 
56 59 
56 60 
56 63 
56 71 
56 85 
56 86 
56 101 
56 102 
56 113 
56 116 
56 126 
56 131 
56 146 
56 148 
56 155 
56 161 
56 176 
56 179 
56 187 
56 191 
56 197 
56 206 
56 211 
56 221 
57 58 
57 59 
57 60 
57 72 
57 75 
57 77 
57 87 
57 98 
57 102 
57 117 
57 119 
57 129 
57 132 
57 145 
57 147 
57 157 
57 162 
57 168 
57 177 
57 185 
57 192 
57 199 
57 207 
57 216 
57 222 
58 59 
58 60 
58 72 
58 73 
58 80 
58 88 
58 91 
58 103 
58 114 
58 118 
58 128 
58 133 
58 137 
58 148 
58 160 
58 163 
58 178 
58 180 
58 184 
58 193 
58 202 
58 208 
58 223 
58 224 
59 60 
59 68 
59 74 
59 79 
59 89 
59 93 
59 104 
59 107 
59 119 
59 130 
59 134 
59 149 
59 150 
59 151 
59 164 
59 178 
59 179 
59 192 
59 194 
59 201 
59 209 
59 221 
59 224 
60 74 
60 75 
60 88 
60 90 
60 94 
60 105 
60 116 
60 120 
60 121 
60 135 
60 143 
60 150 
60 159 
60 165 
60 172 
60 180 
60 186 
60 195 
60 200 
60 210 
60 220 
60 225 
61 62 
61 63 
61 64 
61 65 
61 66 
61 67 
61 68 
61 69 
61 70 
61 71 
61 72 
61 73 
61 74 
61 75 
61 76 
61 87 
61 91 
61 101 
61 106 
61 110 
61 121 
61 124 
61 136 
61 138 
61 151 
61 152 
61 166 
61 173 
61 181 
61 195 
61 196 
61 209 
61 211 
61 223 
62 63 
62 64 
62 65 
62 66 
62 67 
62 68 
62 69 
62 70 
62 71 
62 72 
62 73 
62 74 
62 75 
62 77 
62 81 
62 92 
62 105 
62 107 
62 118 
62 122 
62 134 
62 137 
62 140 
62 152 
62 161 
62 167 
62 175 
62 182 
62 189 
62 197 
62 203 
62 212 
62 217 
63 64 
63 65 
63 66 
63 67 
63 68 
63 69 
63 70 
63 71 
63 72 
63 73 
63 74 
63 75 
63 78 
63 85 
63 93 
63 102 
63 108 
63 113 
63 123 
63 126 
63 138 
63 148 
63 153 
63 155 
63 168 
63 179 
63 183 
63 187 
63 197 
63 198 
63 211 
63 213 
64 65 
64 66 
64 67 
64 68 
64 69 
64 70 
64 71 
64 72 
64 73 
64 74 
64 75 
64 78 
64 79 
64 92 
64 94 
64 106 
64 109 
64 124 
64 135 
64 139 
64 149 
64 154 
64 163 
64 169 
64 177 
64 184 
64 191 
64 199 
64 205 
64 214 
64 219 
65 66 
65 67 
65 68 
65 69 
65 70 
65 71 
65 72 
65 73 
65 74 
65 75 
65 80 
65 82 
65 95 
65 99 
65 110 
65 120 
65 125 
65 132 
65 140 
65 141 
65 155 
65 164 
65 170 
65 176 
65 183 
65 185 
65 196 
65 200 
65 215 
65 218 
66 67 
66 68 
66 69 
66 70 
66 71 
66 72 
66 73 
66 74 
66 75 
66 81 
66 86 
66 96 
66 104 
66 108 
66 111 
66 122 
66 126 
66 136 
66 141 
66 156 
66 165 
66 169 
66 171 
66 186 
66 193 
66 201 
66 207 
66 215 
66 216 
67 68 
67 69 
67 70 
67 71 
67 72 
67 73 
67 74 
67 75 
67 76 
67 82 
67 97 
67 103 
67 109 
67 112 
67 123 
67 127 
67 142 
67 146 
67 156 
67 157 
67 167 
67 172 
67 187 
67 194 
67 202 
67 204 
67 217 
67 222 
68 69 
68 70 
68 71 
68 72 
68 73 
68 74 
68 75 
68 79 
68 83 
68 93 
68 98 
68 107 
68 113 
68 128 
68 130 
68 143 
68 150 
68 151 
68 158 
68 173 
68 178 
68 188 
68 192 
68 201 
68 203 
68 218 
68 221 
69 70 
69 71 
69 72 
69 73 
69 74 
69 75 
69 84 
69 90 
69 99 
69 100 
69 111 
69 114 
69 129 
69 133 
69 142 
69 144 
69 159 
69 162 
69 166 
69 174 
69 188 
69 189 
69 198 
69 204 
69 214 
69 219 
70 71 
70 72 
70 73 
70 74 
70 75 
70 84 
70 85 
70 96 
70 100 
70 112 
70 115 
70 130 
70 131 
70 145 
70 147 
70 154 
70 160 
70 170 
70 175 
70 182 
70 190 
70 205 
70 208 
70 220 
70 225 
71 72 
71 73 
71 74 
71 75 
71 83 
71 86 
71 97 
71 101 
71 115 
71 116 
71 125 
71 131 
71 139 
71 146 
71 153 
71 161 
71 174 
71 176 
71 181 
71 191 
71 206 
71 210 
71 212 
71 221 
72 73 
72 74 
72 75 
72 80 
72 87 
72 91 
72 102 
72 114 
72 117 
72 128 
72 132 
72 137 
72 147 
72 160 
72 162 
72 177 
72 180 
72 184 
72 192 
72 202 
72 207 
72 222 
72 224 
73 74 
73 75 
73 88 
73 89 
73 95 
73 103 
73 117 
73 118 
73 127 
73 133 
73 144 
73 148 
73 158 
73 163 
73 171 
73 178 
73 190 
73 193 
73 206 
73 208 
73 213 
73 223 
74 75 
74 88 
74 89 
74 94 
74 104 
74 116 
74 119 
74 121 
74 134 
74 143 
74 149 
74 159 
74 164 
74 172 
74 179 
74 186 
74 194 
74 200 
74 209 
74 220 
74 224 
75 77 
75 90 
75 98 
75 105 
75 119 
75 120 
75 129 
75 135 
75 145 
75 150 
75 157 
75 165 
75 168 
75 180 
75 185 
75 195 
75 199 
75 210 
75 216 
75 225 
76 77 
76 78 
76 79 
76 80 
76 81 
76 82 
76 83 
76 84 
76 85 
76 86 
76 87 
76 88 
76 89 
76 90 
76 91 
76 103 
76 106 
76 109 
76 121 
76 123 
76 136 
76 146 
76 151 
76 156 
76 166 
76 167 
76 181 
76 194 
76 196 
76 204 
76 211 
76 222 
77 78 
77 79 
77 80 
77 81 
77 82 
77 83 
77 84 
77 85 
77 86 
77 87 
77 88 
77 89 
77 90 
77 92 
77 98 
77 107 
77 119 
77 122 
77 129 
77 137 
77 145 
77 152 
77 157 
77 167 
77 168 
77 182 
77 185 
77 197 
77 199 
77 212 
77 216 
78 79 
78 80 
78 81 
78 82 
78 83 
78 84 
78 85 
78 86 
78 87 
78 88 
78 89 
78 90 
78 92 
78 93 
78 106 
78 108 
78 123 
78 135 
78 138 
78 149 
78 153 
78 163 
78 168 
78 177 
78 183 
78 191 
78 198 
78 205 
78 213 
78 219 
79 80 
79 81 
79 82 
79 83 
79 84 
79 85 
79 86 
79 87 
79 88 
79 89 
79 90 
79 93 
79 94 
79 107 
79 109 
79 124 
79 130 
79 139 
79 150 
79 151 
79 154 
79 169 
79 178 
79 184 
79 192 
79 199 
79 201 
79 214 
79 221 
80 81 
80 82 
80 83 
80 84 
80 85 
80 86 
80 87 
80 88 
80 89 
80 90 
80 91 
80 95 
80 110 
80 114 
80 125 
80 128 
80 137 
80 140 
80 155 
80 160 
80 170 
80 180 
80 184 
80 185 
80 200 
80 202 
80 215 
80 224 
81 82 
81 83 
81 84 
81 85 
81 86 
81 87 
81 88 
81 89 
81 90 
81 96 
81 105 
81 111 
81 118 
81 126 
81 134 
81 140 
81 141 
81 156 
81 161 
81 171 
81 175 
81 186 
81 189 
81 201 
81 203 
81 216 
81 217 
82 83 
82 84 
82 85 
82 86 
82 87 
82 88 
82 89 
82 90 
82 97 
82 99 
82 112 
82 120 
82 127 
82 132 
82 141 
82 142 
82 157 
82 164 
82 172 
82 176 
82 183 
82 187 
82 196 
82 202 
82 217 
82 218 
83 84 
83 85 
83 86 
83 87 
83 88 
83 89 
83 90 
83 97 
83 98 
83 113 
83 115 
83 125 
83 128 
83 139 
83 143 
83 153 
83 158 
83 173 
83 174 
83 181 
83 188 
83 203 
83 210 
83 212 
83 218 
84 85 
84 86 
84 87 
84 88 
84 89 
84 90 
84 96 
84 99 
84 112 
84 114 
84 129 
84 131 
84 144 
84 147 
84 154 
84 159 
84 170 
84 174 
84 182 
84 189 
84 204 
84 208 
84 219 
84 225 
85 86 
85 87 
85 88 
85 89 
85 90 
85 100 
85 102 
85 113 
85 115 
85 126 
85 130 
85 145 
85 148 
85 155 
85 160 
85 175 
85 179 
85 187 
85 190 
85 197 
85 205 
85 211 
85 220 
86 87 
86 88 
86 89 
86 90 
86 101 
86 104 
86 108 
86 116 
86 122 
86 131 
86 136 
86 146 
86 161 
86 165 
86 169 
86 176 
86 191 
86 193 
86 206 
86 207 
86 215 
86 221 
87 88 
87 89 
87 90 
87 101 
87 102 
87 110 
87 117 
87 124 
87 132 
87 138 
87 147 
87 152 
87 162 
87 173 
87 177 
87 192 
87 195 
87 207 
87 209 
87 222 
87 223 
88 89 
88 90 
88 94 
88 103 
88 116 
88 118 
88 121 
88 133 
88 143 
88 148 
88 159 
88 163 
88 172 
88 178 
88 186 
88 193 
88 200 
88 208 
88 220 
88 223 
89 90 
89 95 
89 104 
89 117 
89 119 
89 127 
89 134 
89 144 
89 149 
89 158 
89 164 
89 171 
89 179 
89 190 
89 194 
89 206 
89 209 
89 213 
89 224 
90 100 
90 105 
90 111 
90 120 
90 133 
90 135 
90 142 
90 150 
90 162 
90 165 
90 166 
90 180 
90 188 
90 195 
90 198 
90 210 
90 214 
90 225 
91 92 
91 93 
91 94 
91 95 
91 96 
91 97 
91 98 
91 99 
91 100 
91 101 
91 102 
91 103 
91 104 
91 105 
91 106 
91 114 
91 121 
91 128 
91 136 
91 137 
91 151 
91 160 
91 166 
91 180 
91 181 
91 184 
91 196 
91 202 
91 211 
91 224 
92 93 
92 94 
92 95 
92 96 
92 97 
92 98 
92 99 
92 100 
92 101 
92 102 
92 103 
92 104 
92 105 
92 106 
92 107 
92 122 
92 135 
92 137 
92 149 
92 152 
92 163 
92 167 
92 177 
92 182 
92 191 
92 197 
92 205 
92 212 
92 219 
93 94 
93 95 
93 96 
93 97 
93 98 
93 99 
93 100 
93 101 
93 102 
93 103 
93 104 
93 105 
93 107 
93 108 
93 123 
93 130 
93 138 
93 150 
93 151 
93 153 
93 168 
93 178 
93 183 
93 192 
93 198 
93 201 
93 213 
93 221 
94 95 
94 96 
94 97 
94 98 
94 99 
94 100 
94 101 
94 102 
94 103 
94 104 
94 105 
94 109 
94 116 
94 121 
94 124 
94 139 
94 143 
94 154 
94 159 
94 169 
94 172 
94 184 
94 186 
94 199 
94 200 
94 214 
94 220 
95 96 
95 97 
95 98 
95 99 
95 100 
95 101 
95 102 
95 103 
95 104 
95 105 
95 110 
95 117 
95 125 
95 127 
95 140 
95 144 
95 155 
95 158 
95 170 
95 171 
95 185 
95 190 
95 200 
95 206 
95 213 
95 215 
96 97 
96 98 
96 99 
96 100 
96 101 
96 102 
96 103 
96 104 
96 105 
96 111 
96 112 
96 126 
96 131 
96 141 
96 147 
96 154 
96 156 
96 170 
96 171 
96 182 
96 186 
96 201 
96 208 
96 216 
96 225 
97 98 
97 99 
97 100 
97 101 
97 102 
97 103 
97 104 
97 105 
97 112 
97 115 
97 125 
97 127 
97 139 
97 142 
97 153 
97 157 
97 172 
97 174 
97 181 
97 187 
97 202 
97 210 
97 212 
97 217 
98 99 
98 100 
98 101 
98 102 
98 103 
98 104 
98 105 
98 113 
98 119 
98 128 
98 129 
98 143 
98 145 
98 157 
98 158 
98 168 
98 173 
98 185 
98 188 
98 199 
98 203 
98 216 
98 218 
99 100 
99 101 
99 102 
99 103 
99 104 
99 105 
99 114 
99 120 
99 129 
99 132 
99 141 
99 144 
99 159 
99 164 
99 174 
99 176 
99 183 
99 189 
99 196 
99 204 
99 218 
99 219 
100 101 
100 102 
100 103 
100 104 
100 105 
100 111 
100 115 
100 130 
100 133 
100 142 
100 145 
100 160 
100 162 
100 166 
100 175 
100 188 
100 190 
100 198 
100 205 
100 214 
100 220 
101 102 
101 103 
101 104 
101 105 
101 110 
101 116 
101 124 
101 131 
101 138 
101 146 
101 152 
101 161 
101 173 
101 176 
101 191 
101 195 
101 206 
101 209 
101 221 
101 223 
102 103 
102 104 
102 105 
102 113 
102 117 
102 126 
102 132 
102 147 
102 148 
102 155 
102 162 
102 177 
102 179 
102 187 
102 192 
102 197 
102 207 
102 211 
102 222 
103 104 
103 105 
103 109 
103 118 
103 123 
103 133 
103 146 
103 148 
103 156 
103 163 
103 167 
103 178 
103 193 
103 194 
103 204 
103 208 
103 222 
103 223 
104 105 
104 108 
104 119 
104 122 
104 134 
104 136 
104 149 
104 164 
104 165 
104 169 
104 179 
104 193 
104 194 
104 207 
104 209 
104 215 
104 224 
105 118 
105 120 
105 134 
105 135 
105 140 
105 150 
105 161 
105 165 
105 175 
105 180 
105 189 
105 195 
105 203 
105 210 
105 217 
105 225 
106 107 
106 108 
106 109 
106 110 
106 111 
106 112 
106 113 
106 114 
106 115 
106 116 
106 117 
106 118 
106 119 
106 120 
106 121 
106 135 
106 136 
106 149 
106 151 
106 163 
106 166 
106 177 
106 181 
106 191 
106 196 
106 205 
106 211 
106 219 
107 108 
107 109 
107 110 
107 111 
107 112 
107 113 
107 114 
107 115 
107 116 
107 117 
107 118 
107 119 
107 120 
107 122 
107 130 
107 137 
107 150 
107 151 
107 152 
107 167 
107 178 
107 182 
107 192 
107 197 
107 201 
107 212 
107 221 
108 109 
108 110 
108 111 
108 112 
108 113 
108 114 
108 115 
108 116 
108 117 
108 118 
108 119 
108 120 
108 122 
108 123 
108 136 
108 138 
108 153 
108 165 
108 168 
108 169 
108 183 
108 193 
108 198 
108 207 
108 213 
108 215 
109 110 
109 111 
109 112 
109 113 
109 114 
109 115 
109 116 
109 117 
109 118 
109 119 
109 120 
109 123 
109 124 
109 139 
109 146 
109 154 
109 156 
109 167 
109 169 
109 184 
109 194 
109 199 
109 204 
109 214 
109 222 
110 111 
110 112 
110 113 
110 114 
110 115 
110 116 
110 117 
110 118 
110 119 
110 120 
110 124 
110 125 
110 138 
110 140 
110 152 
110 155 
110 170 
110 173 
110 185 
110 195 
110 200 
110 209 
110 215 
110 223 
111 112 
111 113 
111 114 
111 115 
111 116 
111 117 
111 118 
111 119 
111 120 
111 126 
111 133 
111 141 
111 142 
111 156 
111 162 
111 166 
111 171 
111 186 
111 188 
111 198 
111 201 
111 214 
111 216 
112 113 
112 114 
112 115 
112 116 
112 117 
112 118 
112 119 
112 120 
112 127 
112 131 
112 142 
112 147 
112 154 
112 157 
112 170 
112 172 
112 182 
112 187 
112 202 
112 208 
112 217 
112 225 
113 114 
113 115 
113 116 
113 117 
113 118 
113 119 
113 120 
113 126 
113 128 
113 143 
113 148 
113 155 
113 158 
113 173 
113 179 
113 187 
113 188 
113 197 
113 203 
113 211 
113 218 
114 115 
114 116 
114 117 
114 118 
114 119 
114 120 
114 128 
114 129 
114 137 
114 144 
114 159 
114 160 
114 174 
114 180 
114 184 
114 189 
114 202 
114 204 
114 219 
114 224 
115 116 
115 117 
115 118 
115 119 
115 120 
115 125 
115 130 
115 139 
115 145 
115 153 
115 160 
115 174 
115 175 
115 181 
115 190 
115 205 
115 210 
115 212 
115 220 
116 117 
116 118 
116 119 
116 120 
116 121 
116 131 
116 143 
116 146 
116 159 
116 161 
116 172 
116 176 
116 186 
116 191 
116 200 
116 206 
116 220 
116 221 
117 118 
117 119 
117 120 
117 127 
117 132 
117 144 
117 147 
117 158 
117 162 
117 171 
117 177 
117 190 
117 192 
117 206 
117 207 
117 213 
117 222 
118 119 
118 120 
118 133 
118 134 
118 140 
118 148 
118 161 
118 163 
118 175 
118 178 
118 189 
118 193 
118 203 
118 208 
118 217 
118 223 
119 120 
119 129 
119 134 
119 145 
119 149 
119 157 
119 164 
119 168 
119 179 
119 185 
119 194 
119 199 
119 209 
119 216 
119 224 
120 132 
120 135 
120 141 
120 150 
120 164 
120 165 
120 176 
120 180 
120 183 
120 195 
120 196 
120 210 
120 218 
120 225 
121 122 
121 123 
121 124 
121 125 
121 126 
121 127 
121 128 
121 129 
121 130 
121 131 
121 132 
121 133 
121 134 
121 135 
121 136 
121 143 
121 151 
121 159 
121 166 
121 172 
121 181 
121 186 
121 196 
121 200 
121 211 
121 220 
122 123 
122 124 
122 125 
122 126 
122 127 
122 128 
122 129 
122 130 
122 131 
122 132 
122 133 
122 134 
122 135 
122 136 
122 137 
122 152 
122 165 
122 167 
122 169 
122 182 
122 193 
122 197 
122 207 
122 212 
122 215 
123 124 
123 125 
123 126 
123 127 
123 128 
123 129 
123 130 
123 131 
123 132 
123 133 
123 134 
123 135 
123 138 
123 146 
123 153 
123 156 
123 167 
123 168 
123 183 
123 194 
123 198 
123 204 
123 213 
123 222 
124 125 
124 126 
124 127 
124 128 
124 129 
124 130 
124 131 
124 132 
124 133 
124 134 
124 135 
124 138 
124 139 
124 152 
124 154 
124 169 
124 173 
124 184 
124 195 
124 199 
124 209 
124 214 
124 223 
125 126 
125 127 
125 128 
125 129 
125 130 
125 131 
125 132 
125 133 
125 134 
125 135 
125 139 
125 140 
125 153 
125 155 
125 170 
125 174 
125 181 
125 185 
125 200 
125 210 
125 212 
125 215 
126 127 
126 128 
126 129 
126 130 
126 131 
126 132 
126 133 
126 134 
126 135 
126 141 
126 148 
126 155 
126 156 
126 171 
126 179 
126 186 
126 187 
126 197 
126 201 
126 211 
126 216 
127 128 
127 129 
127 130 
127 131 
127 132 
127 133 
127 134 
127 135 
127 142 
127 144 
127 157 
127 158 
127 171 
127 172 
127 187 
127 190 
127 202 
127 206 
127 213 
127 217 
128 129 
128 130 
128 131 
128 132 
128 133 
128 134 
128 135 
128 137 
128 143 
128 158 
128 160 
128 173 
128 180 
128 184 
128 188 
128 202 
128 203 
128 218 
128 224 
129 130 
129 131 
129 132 
129 133 
129 134 
129 135 
129 144 
129 145 
129 157 
129 159 
129 168 
129 174 
129 185 
129 189 
129 199 
129 204 
129 216 
129 219 
130 131 
130 132 
130 133 
130 134 
130 135 
130 145 
130 150 
130 151 
130 160 
130 175 
130 178 
130 190 
130 192 
130 201 
130 205 
130 220 
130 221 
131 132 
131 133 
131 134 
131 135 
131 146 
131 147 
131 154 
131 161 
131 170 
131 176 
131 182 
131 191 
131 206 
131 208 
131 221 
131 225 
132 133 
132 134 
132 135 
132 141 
132 147 
132 162 
132 164 
132 176 
132 177 
132 183 
132 192 
132 196 
132 207 
132 218 
132 222 
133 134 
133 135 
133 142 
133 148 
133 162 
133 163 
133 166 
133 178 
133 188 
133 193 
133 198 
133 208 
133 214 
133 223 
134 135 
134 140 
134 149 
134 161 
134 164 
134 175 
134 179 
134 189 
134 194 
134 203 
134 209 
134 217 
134 224 
135 149 
135 150 
135 163 
135 165 
135 177 
135 180 
135 191 
135 195 
135 205 
135 210 
135 219 
135 225 
136 137 
136 138 
136 139 
136 140 
136 141 
136 142 
136 143 
136 144 
136 145 
136 146 
136 147 
136 148 
136 149 
136 150 
136 151 
136 165 
136 166 
136 169 
136 181 
136 193 
136 196 
136 207 
136 211 
136 215 
137 138 
137 139 
137 140 
137 141 
137 142 
137 143 
137 144 
137 145 
137 146 
137 147 
137 148 
137 149 
137 150 
137 152 
137 160 
137 167 
137 180 
137 182 
137 184 
137 197 
137 202 
137 212 
137 224 
138 139 
138 140 
138 141 
138 142 
138 143 
138 144 
138 145 
138 146 
138 147 
138 148 
138 149 
138 150 
138 152 
138 153 
138 168 
138 173 
138 183 
138 195 
138 198 
138 209 
138 213 
138 223 
139 140 
139 141 
139 142 
139 143 
139 144 
139 145 
139 146 
139 147 
139 148 
139 149 
139 150 
139 153 
139 154 
139 169 
139 174 
139 181 
139 184 
139 199 
139 210 
139 212 
139 214 
140 141 
140 142 
140 143 
140 144 
140 145 
140 146 
140 147 
140 148 
140 149 
140 150 
140 155 
140 161 
140 170 
140 175 
140 185 
140 189 
140 200 
140 203 
140 215 
140 217 
141 142 
141 143 
141 144 
141 145 
141 146 
141 147 
141 148 
141 149 
141 150 
141 156 
141 164 
141 171 
141 176 
141 183 
141 186 
141 196 
141 201 
141 216 
141 218 
142 143 
142 144 
142 145 
142 146 
142 147 
142 148 
142 149 
142 150 
142 157 
142 162 
142 166 
142 172 
142 187 
142 188 
142 198 
142 202 
142 214 
142 217 
143 144 
143 145 
143 146 
143 147 
143 148 
143 149 
143 150 
143 158 
143 159 
143 172 
143 173 
143 186 
143 188 
143 200 
143 203 
143 218 
143 220 
144 145 
144 146 
144 147 
144 148 
144 149 
144 150 
144 158 
144 159 
144 171 
144 174 
144 189 
144 190 
144 204 
144 206 
144 213 
144 219 
145 146 
145 147 
145 148 
145 149 
145 150 
145 157 
145 160 
145 168 
145 175 
145 185 
145 190 
145 199 
145 205 
145 216 
145 220 
146 147 
146 148 
146 149 
146 150 
146 156 
146 161 
146 167 
146 176 
146 191 
146 194 
146 204 
146 206 
146 221 
146 222 
147 148 
147 149 
147 150 
147 154 
147 162 
147 170 
147 177 
147 182 
147 192 
147 207 
147 208 
147 222 
147 225 
148 149 
148 150 
148 155 
148 163 
148 178 
148 179 
148 187 
148 193 
148 197 
148 208 
148 211 
148 223 
149 150 
149 163 
149 164 
149 177 
149 179 
149 191 
149 194 
149 205 
149 209 
149 219 
149 224 
150 151 
150 165 
150 178 
150 180 
150 192 
150 195 
150 201 
150 210 
150 221 
150 225 
151 152 
151 153 
151 154 
151 155 
151 156 
151 157 
151 158 
151 159 
151 160 
151 161 
151 162 
151 163 
151 164 
151 165 
151 166 
151 178 
151 181 
151 192 
151 196 
151 201 
151 211 
151 221 
152 153 
152 154 
152 155 
152 156 
152 157 
152 158 
152 159 
152 160 
152 161 
152 162 
152 163 
152 164 
152 165 
152 167 
152 173 
152 182 
152 195 
152 197 
152 209 
152 212 
152 223 
153 154 
153 155 
153 156 
153 157 
153 158 
153 159 
153 160 
153 161 
153 162 
153 163 
153 164 
153 165 
153 168 
153 174 
153 181 
153 183 
153 198 
153 210 
153 212 
153 213 
154 155 
154 156 
154 157 
154 158 
154 159 
154 160 
154 161 
154 162 
154 163 
154 164 
154 165 
154 169 
154 170 
154 182 
154 184 
154 199 
154 208 
154 214 
154 225 
155 156 
155 157 
155 158 
155 159 
155 160 
155 161 
155 162 
155 163 
155 164 
155 165 
155 170 
155 179 
155 185 
155 187 
155 197 
155 200 
155 211 
155 215 
156 157 
156 158 
156 159 
156 160 
156 161 
156 162 
156 163 
156 164 
156 165 
156 167 
156 171 
156 186 
156 194 
156 201 
156 204 
156 216 
156 222 
157 158 
157 159 
157 160 
157 161 
157 162 
157 163 
157 164 
157 165 
157 168 
157 172 
157 185 
157 187 
157 199 
157 202 
157 216 
157 217 
158 159 
158 160 
158 161 
158 162 
158 163 
158 164 
158 165 
158 171 
158 173 
158 188 
158 190 
158 203 
158 206 
158 213 
158 218 
159 160 
159 161 
159 162 
159 163 
159 164 
159 165 
159 172 
159 174 
159 186 
159 189 
159 200 
159 204 
159 219 
159 220 
160 161 
160 162 
160 163 
160 164 
160 165 
160 175 
160 180 
160 184 
160 190 
160 202 
160 205 
160 220 
160 224 
161 162 
161 163 
161 164 
161 165 
161 175 
161 176 
161 189 
161 191 
161 203 
161 206 
161 217 
161 221 
162 163 
162 164 
162 165 
162 166 
162 177 
162 188 
162 192 
162 198 
162 207 
162 214 
162 222 
163 164 
163 165 
163 177 
163 178 
163 191 
163 193 
163 205 
163 208 
163 219 
163 223 
164 165 
164 176 
164 179 
164 183 
164 194 
164 196 
164 209 
164 218 
164 224 
165 169 
165 180 
165 193 
165 195 
165 207 
165 210 
165 215 
165 225 
166 167 
166 168 
166 169 
166 170 
166 171 
166 172 
166 173 
166 174 
166 175 
166 176 
166 177 
166 178 
166 179 
166 180 
166 181 
166 188 
166 196 
166 198 
166 211 
166 214 
167 168 
167 169 
167 170 
167 171 
167 172 
167 173 
167 174 
167 175 
167 176 
167 177 
167 178 
167 179 
167 180 
167 182 
167 194 
167 197 
167 204 
167 212 
167 222 
168 169 
168 170 
168 171 
168 172 
168 173 
168 174 
168 175 
168 176 
168 177 
168 178 
168 179 
168 180 
168 183 
168 185 
168 198 
168 199 
168 213 
168 216 
169 170 
169 171 
169 172 
169 173 
169 174 
169 175 
169 176 
169 177 
169 178 
169 179 
169 180 
169 184 
169 193 
169 199 
169 207 
169 214 
169 215 
170 171 
170 172 
170 173 
170 174 
170 175 
170 176 
170 177 
170 178 
170 179 
170 180 
170 182 
170 185 
170 200 
170 208 
170 215 
170 225 
171 172 
171 173 
171 174 
171 175 
171 176 
171 177 
171 178 
171 179 
171 180 
171 186 
171 190 
171 201 
171 206 
171 213 
171 216 
172 173 
172 174 
172 175 
172 176 
172 177 
172 178 
172 179 
172 180 
172 186 
172 187 
172 200 
172 202 
172 217 
172 220 
173 174 
173 175 
173 176 
173 177 
173 178 
173 179 
173 180 
173 188 
173 195 
173 203 
173 209 
173 218 
173 223 
174 175 
174 176 
174 177 
174 178 
174 179 
174 180 
174 181 
174 189 
174 204 
174 210 
174 212 
174 219 
175 176 
175 177 
175 178 
175 179 
175 180 
175 189 
175 190 
175 203 
175 205 
175 217 
175 220 
176 177 
176 178 
176 179 
176 180 
176 183 
176 191 
176 196 
176 206 
176 218 
176 221 
177 178 
177 179 
177 180 
177 191 
177 192 
177 205 
177 207 
177 219 
177 222 
178 179 
178 180 
178 192 
178 193 
178 201 
178 208 
178 221 
178 223 
179 180 
179 187 
179 194 
179 197 
179 209 
179 211 
179 224 
180 184 
180 195 
180 202 
180 210 
180 224 
180 225 
181 182 
181 183 
181 184 
181 185 
181 186 
181 187 
181 188 
181 189 
181 190 
181 191 
181 192 
181 193 
181 194 
181 195 
181 196 
181 210 
181 211 
181 212 
182 183 
182 184 
182 185 
182 186 
182 187 
182 188 
182 189 
182 190 
182 191 
182 192 
182 193 
182 194 
182 195 
182 197 
182 208 
182 212 
182 225 
183 184 
183 185 
183 186 
183 187 
183 188 
183 189 
183 190 
183 191 
183 192 
183 193 
183 194 
183 195 
183 196 
183 198 
183 213 
183 218 
184 185 
184 186 
184 187 
184 188 
184 189 
184 190 
184 191 
184 192 
184 193 
184 194 
184 195 
184 199 
184 202 
184 214 
184 224 
185 186 
185 187 
185 188 
185 189 
185 190 
185 191 
185 192 
185 193 
185 194 
185 195 
185 199 
185 200 
185 215 
185 216 
186 187 
186 188 
186 189 
186 190 
186 191 
186 192 
186 193 
186 194 
186 195 
186 200 
186 201 
186 216 
186 220 
187 188 
187 189 
187 190 
187 191 
187 192 
187 193 
187 194 
187 195 
187 197 
187 202 
187 211 
187 217 
188 189 
188 190 
188 191 
188 192 
188 193 
188 194 
188 195 
188 198 
188 203 
188 214 
188 218 
189 190 
189 191 
189 192 
189 193 
189 194 
189 195 
189 203 
189 204 
189 217 
189 219 
190 191 
190 192 
190 193 
190 194 
190 195 
190 205 
190 206 
190 213 
190 220 
191 192 
191 193 
191 194 
191 195 
191 205 
191 206 
191 219 
191 221 
192 193 
192 194 
192 195 
192 201 
192 207 
192 221 
192 222 
193 194 
193 195 
193 207 
193 208 
193 215 
193 223 
194 195 
194 204 
194 209 
194 222 
194 224 
195 209 
195 210 
195 223 
195 225 
196 197 
196 198 
196 199 
196 200 
196 201 
196 202 
196 203 
196 204 
196 205 
196 206 
196 207 
196 208 
196 209 
196 210 
196 211 
196 218 
197 198 
197 199 
197 200 
197 201 
197 202 
197 203 
197 204 
197 205 
197 206 
197 207 
197 208 
197 209 
197 210 
197 211 
197 212 
198 199 
198 200 
198 201 
198 202 
198 203 
198 204 
198 205 
198 206 
198 207 
198 208 
198 209 
198 210 
198 213 
198 214 
199 200 
199 201 
199 202 
199 203 
199 204 
199 205 
199 206 
199 207 
199 208 
199 209 
199 210 
199 214 
199 216 
200 201 
200 202 
200 203 
200 204 
200 205 
200 206 
200 207 
200 208 
200 209 
200 210 
200 215 
200 220 
201 202 
201 203 
201 204 
201 205 
201 206 
201 207 
201 208 
201 209 
201 210 
201 216 
201 221 
202 203 
202 204 
202 205 
202 206 
202 207 
202 208 
202 209 
202 210 
202 217 
202 224 
203 204 
203 205 
203 206 
203 207 
203 208 
203 209 
203 210 
203 217 
203 218 
204 205 
204 206 
204 207 
204 208 
204 209 
204 210 
204 219 
204 222 
205 206 
205 207 
205 208 
205 209 
205 210 
205 219 
205 220 
206 207 
206 208 
206 209 
206 210 
206 213 
206 221 
207 208 
207 209 
207 210 
207 215 
207 222 
208 209 
208 210 
208 223 
208 225 
209 210 
209 223 
209 224 
210 212 
210 225 
211 212 
211 213 
211 214 
211 215 
211 216 
211 217 
211 218 
211 219 
211 220 
211 221 
211 222 
211 223 
211 224 
211 225 
212 213 
212 214 
212 215 
212 216 
212 217 
212 218 
212 219 
212 220 
212 221 
212 222 
212 223 
212 224 
212 225 
213 214 
213 215 
213 216 
213 217 
213 218 
213 219 
213 220 
213 221 
213 222 
213 223 
213 224 
213 225 
214 215 
214 216 
214 217 
214 218 
214 219 
214 220 
214 221 
214 222 
214 223 
214 224 
214 225 
215 216 
215 217 
215 218 
215 219 
215 220 
215 221 
215 222 
215 223 
215 224 
215 225 
216 217 
216 218 
216 219 
216 220 
216 221 
216 222 
216 223 
216 224 
216 225 
217 218 
217 219 
217 220 
217 221 
217 222 
217 223 
217 224 
217 225 
218 219 
218 220 
218 221 
218 222 
218 223 
218 224 
218 225 
219 220 
219 221 
219 222 
219 223 
219 224 
219 225 
220 221 
220 222 
220 223 
220 224 
220 225 
221 222 
221 223 
221 224 
221 225 
222 223 
222 224 
222 225 
223 224 
223 225 
224 225 
